NAME : instances/50-tsp/instance-47.tsp
COMMENT : No comment
TYPE : TSP
DIMENSION: 50
EDGE_WEIGHT_TYPE : EUC_2D
NODE_COORD_SECTION
1 1593 94 
2 1649 1564 
3 1522 504 
4 1556 351 
5 184 1786 
6 42 1839 
7 1465 975 
8 1182 938 
9 1746 1524 
10 393 314 
11 1253 351 
12 1518 645 
13 382 451 
14 673 205 
15 1576 1109 
16 364 543 
17 1522 1364 
18 955 112 
19 81 1368 
20 299 1185 
21 1199 1735 
22 1934 654 
23 1465 1160 
24 815 645 
25 1067 1126 
26 24 1204 
27 1424 720 
28 403 906 
29 440 1329 
30 716 1722 
31 1557 1431 
32 1919 943 
33 867 1728 
34 1760 1995 
35 1202 1916 
36 364 235 
37 995 208 
38 223 511 
39 1822 774 
40 1651 895 
41 434 505 
42 523 1283 
43 1821 491 
44 1598 1667 
45 1828 311 
46 830 933 
47 302 1028 
48 886 543 
49 1349 1181 
50 908 520 
EOF
